6 128 42 139 31 142 13 175 187 115 173 126 71 169 22 1 79 174 86 136 102 5 159 20 92 132 131 80 183 179 191 194 190 143 34 160 45 74 84 69 32 91 103 65 70 9 60 58 133 81 170 129 61 56 181 96 178 113 77 140 33 165 166 67 57 100 41 82 148 112 50 76 123 195 2 35 138 114 39 182 40 151 48 171 55 47 29 162 10 146 0 93 130 119 118 164 98 116 27 99 193 153 186 185 38 64 168 8 46 156 73 101 122 109 15 111 137 62 59 49 72 176 52 94 83 97 172 108 199 44 7 75 180 192 53 157 26 36 121 127 158 198 51 87 3 107 12 16 30 144 37 21 125 54 90 66 17 23 188 154 104 120 89 196 63 95 117 163 124 161 105 134 19 167 149 85 43 24 177 184 68 18 145 106 25 28 141 189 4 110 88 135 155 11 150 14 197 78 147 152 

